c description: Random 3-CNF over 24 variables and 102 clauses
c generator: CNFgen (0.9.2)
c copyright: (C) 2012-2022 Massimo Lauria <massimo.lauria@uniroma1.it>
c url: https://massimolauria.net/cnfgen
c command line: cnfgen --output CNF_4.28/24_bit_102_966.cnf randkcnf 3 24 102
c
p cnf 24 102
-15 -20 -22 0
10 17 -21 0
8 -21 22 0
7 10 21 0
-8 -10 -13 0
-14 -17 22 0
1 7 16 0
8 -9 22 0
-6 -7 18 0
-17 -20 -21 0
-1 5 13 0
-2 -11 -22 0
3 12 16 0
3 -9 -14 0
-6 14 -24 0
7 10 18 0
3 11 16 0
-3 6 10 0
4 -9 -20 0
1 18 23 0
-4 14 -23 0
-4 -18 -24 0
4 -21 -23 0
-13 -15 -22 0
15 -16 -18 0
11 17 -23 0
-10 14 21 0
9 -13 -15 0
1 5 -23 0
2 -3 22 0
-7 -10 20 0
-2 9 -16 0
5 16 -21 0
-4 6 -9 0
6 -12 21 0
-6 -14 20 0
2 17 19 0
14 19 20 0
-2 3 -15 0
2 13 17 0
2 -4 8 0
-10 11 -12 0
-5 10 12 0
-7 20 23 0
-8 -17 24 0
15 19 -20 0
9 17 23 0
1 -11 13 0
1 -14 -18 0
13 -16 -23 0
-3 -16 22 0
-2 13 -21 0
-8 12 22 0
-2 5 -19 0
-9 -14 15 0
17 -18 22 0
-10 22 -24 0
14 20 -22 0
-4 14 -20 0
-1 2 24 0
-4 -7 17 0
14 15 18 0
1 9 12 0
9 15 19 0
-13 -17 -19 0
-10 -17 -18 0
7 -18 -20 0
13 14 -15 0
-17 21 24 0
-4 18 22 0
4 16 23 0
-1 -7 12 0
-3 6 17 0
3 -10 -19 0
12 18 24 0
4 16 19 0
-5 16 -17 0
7 10 16 0
1 15 -19 0
9 18 -21 0
5 11 20 0
-3 7 -9 0
8 -9 23 0
5 9 -14 0
5 7 16 0
-9 -17 -20 0
21 22 24 0
9 -11 -19 0
-1 -12 16 0
-5 12 -21 0
-2 6 10 0
-6 -7 20 0
9 10 20 0
13 15 -16 0
-1 4 -15 0
3 -16 18 0
15 -17 23 0
13 -19 24 0
-1 5 -12 0
15 -20 21 0
-3 -11 18 0
5 -11 16 0
